0 43 50 31 12 12 44 25 35 16 4 29
25 0 4 50 26 38 10 49 10 2 25 9
45 30 0 41 27 14 2 37 35 4 50 46
7 27 49 0 39 5 9 33 40 15 26 10
45 22 17 29 0 23 37 32 23 34 11 29
39 7 9 25 37 0 36 31 50 23 39 47
35 1 36 47 31 27 0 40 18 4 39 5
21 8 29 1 30 18 21 0 48 38 45 31
3 12 9 31 4 49 34 1 0 24 28 4
23 2 42 46 21 14 18 43 41 0 50 20
14 38 14 38 2 3 6 41 32 32 0 35
46 37 12 20 33 45 39 36 44 21 47 0
